
Log for '' Clone_1 (V12.6.3.0) Wed Apr 10 13:39:05 2019


Log for '' Clone_1 (V12.6.3.0) Wed Apr 10 13:40:01 2019


Log for '' Clone_1 (V12.6.3.0) Wed Apr 10 13:47:30 2019


Log for '' Clone_1 (V12.6.3.0) Wed Apr 10 13:47:31 2019


Log for 'parc_complet.lp-pulp.lp' Clone_1 (V12.6.3.0) Wed Apr 10 13:47:37 2019


Log for 'parc_complet.lp-pulp.lp' Clone_1 (V12.6.3.0) Wed Apr 10 13:48:00 2019


Log for '' Clone_1 (V12.6.3.0) Wed Apr 10 14:02:42 2019


Log for '' Clone_1 (V12.6.3.0) Wed Apr 10 14:02:45 2019


Log for 'parc_complet.lp-pulp.lp' Clone_1 (V12.6.3.0) Wed Apr 10 14:03:07 2019


Log for 'parc_complet.lp-pulp.lp' Clone_1 (V12.6.3.0) Wed Apr 10 14:03:11 2019

Tried aggregator 0 times.
No LP presolve or aggregator reductions.
Presolve time = 0.00 sec. (0.05 ticks)
Parallel mode: using up to 6 threads for barrier.
Barrier time = 0.00 sec. (0.03 ticks)

Dual simplex solved model.


Log for '' Clone_1 (V12.6.3.0) Wed Apr 10 14:07:11 2019


Log for '' Clone_1 (V12.6.3.0) Wed Apr 10 14:07:13 2019


Log for 'parc_complet.lp-pulp.lp' Clone_1 (V12.6.3.0) Wed Apr 10 14:07:24 2019


Log for 'parc_complet.lp-pulp.lp' Clone_1 (V12.6.3.0) Wed Apr 10 14:07:40 2019

Presolve time = 0.00 sec. (0.12 ticks)

Dual simplex solved model.


Log for '' Clone_1 (V12.6.3.0) Wed Apr 10 14:14:22 2019


Log for '' Clone_1 (V12.6.3.0) Wed Apr 10 14:14:24 2019


Log for 'parc_complet.lp-pulp.lp' Clone_1 (V12.6.3.0) Wed Apr 10 14:14:33 2019


Log for 'parc_complet.lp-pulp.lp' Clone_1 (V12.6.3.0) Wed Apr 10 14:14:52 2019

Presolve time = 0.00 sec. (0.12 ticks)

Dual simplex solved model.


Log for '' Clone_1 (V12.6.3.0) Wed Apr 10 14:22:02 2019


Log for '' Clone_1 (V12.6.3.0) Wed Apr 10 14:22:04 2019


Log for 'parc_complet.lp-pulp.lp' Clone_1 (V12.6.3.0) Wed Apr 10 14:22:12 2019


Log for 'parc_complet.lp-pulp.lp' Clone_1 (V12.6.3.0) Wed Apr 10 14:22:31 2019

Presolve time = 0.00 sec. (0.12 ticks)

Dual simplex solved model.


Log for '' Clone_1 (V12.6.3.0) Wed Apr 10 14:26:40 2019


Log for '' Clone_1 (V12.6.3.0) Wed Apr 10 14:26:43 2019


Log for 'parc_complet.lp-pulp.lp' Clone_1 (V12.6.3.0) Wed Apr 10 14:26:55 2019


Log for 'parc_complet.lp-pulp.lp' Clone_1 (V12.6.3.0) Wed Apr 10 14:27:09 2019

Presolve time = 0.00 sec. (0.12 ticks)

Dual simplex solved model.


Log for '' Clone_1 (V12.6.3.0) Wed Apr 10 14:29:01 2019


Log for '' Clone_1 (V12.6.3.0) Wed Apr 10 14:29:04 2019


Log for 'parc_complet.lp-pulp.lp' Clone_1 (V12.6.3.0) Wed Apr 10 14:29:17 2019


Log for 'parc_complet.lp-pulp.lp' Clone_1 (V12.6.3.0) Wed Apr 10 14:29:31 2019

Presolve time = 0.00 sec. (0.11 ticks)

Dual simplex solved model.


Log for '' Clone_1 (V12.6.3.0) Wed Apr 10 14:47:08 2019


Log for '' Clone_1 (V12.6.3.0) Wed Apr 10 14:47:11 2019


Log for 'parc_complet.lp-pulp.lp' Clone_1 (V12.6.3.0) Wed Apr 10 14:47:21 2019


Log for 'parc_complet.lp-pulp.lp' Clone_1 (V12.6.3.0) Wed Apr 10 14:47:38 2019

Presolve time = 0.00 sec. (0.15 ticks)

Dual simplex solved model.


Log for '' Clone_1 (V12.6.3.0) Wed Apr 10 14:49:39 2019


Log for '' Clone_1 (V12.6.3.0) Wed Apr 10 14:49:42 2019


Log for 'parc_complet.lp-pulp.lp' Clone_1 (V12.6.3.0) Wed Apr 10 14:49:52 2019


Log for 'parc_complet.lp-pulp.lp' Clone_1 (V12.6.3.0) Wed Apr 10 14:50:09 2019

Presolve time = 0.00 sec. (0.15 ticks)

Dual simplex solved model.


Log for '' Clone_1 (V12.6.3.0) Wed Apr 10 14:59:29 2019


Log for '' Clone_1 (V12.6.3.0) Wed Apr 10 14:59:31 2019


Log for 'parc_complet.lp-pulp.lp' Clone_1 (V12.6.3.0) Wed Apr 10 14:59:41 2019


Log for 'parc_complet.lp-pulp.lp' Clone_1 (V12.6.3.0) Wed Apr 10 15:03:04 2019

Presolve time = 0.00 sec. (0.10 ticks)

Dual simplex solved model.


Log for '' Clone_1 (V12.6.3.0) Wed Apr 10 15:03:56 2019


Log for '' Clone_1 (V12.6.3.0) Wed Apr 10 15:03:59 2019


Log for '' Clone_1 (V12.6.3.0) Wed Apr 10 15:05:48 2019


Log for '' Clone_1 (V12.6.3.0) Wed Apr 10 15:05:50 2019


Log for '' Clone_1 (V12.6.3.0) Wed Apr 10 15:09:13 2019


Log for '' Clone_1 (V12.6.3.0) Wed Apr 10 15:09:15 2019


Log for '' Clone_1 (V12.6.3.0) Wed Apr 10 15:11:19 2019


Log for '' Clone_1 (V12.6.3.0) Wed Apr 10 15:11:21 2019


Log for 'parc_complet.lp-pulp.lp' Clone_1 (V12.6.3.0) Wed Apr 10 15:11:31 2019


Log for 'parc_complet.lp-pulp.lp' Clone_1 (V12.6.3.0) Wed Apr 10 15:16:04 2019

Presolve time = 0.00 sec. (0.18 ticks)

Dual simplex solved model.

